684740
168,172,204,230,45,212,104,6,203,38,224,33,129,153,217,21,4,142,170,90,150,171,186,109,228,88,146,12,187,103,180,121,219,190,99,202,105,175,54,56,18,92,53,100,216,66,24,141,106,128,41,222,77,158,82,2,115,149,132,52,59,221,80,25,61,182,148,131,173,124,188,85,123,167,79,95,84,57,76,174,29,193,119,195,181,136,206,218,209,86,70,126,122,73,113,160,42,98,51,226,69,177,152,191,114,10,198,200,164,154,65,201,110,14,165,194,120,8,97,220,30,15,137,145,144,26,22,117,20,183,210,7,63,32,140,71,118,49,163,16,189,185,60,138,3,208,159,23,199,178,31,43,127,147,207,39,67,74,157,83,135,162,72,1,36,229,133,155,112,27,169,40,81,130,78,55,102,62,87,35,94,108,50,151,28,37,192,34,215,75,205,161,179,196,107,89,91,96,166,116,184,101,9,68,211,156,5,64,44,223,176,13,17,47,225,48,111,134,19,227,125,46,214,197,143,11,139,58,213,93,168